<number of tasks>
32

<cycle time>
1768

<task times>
1 458
2 276
3 520
4 1400
5 352
6 196
7 214
8 456
9 646
10 512
11 408
12 262
13 544
14 202
15 458
16 694
17 616
18 678
19 328
20 324
21 100
22 352
23 544
24 500
25 382
26 858
27 388
28 352
29 428
30 238
31 258
32 196

<precedence relations>
1,5
2,6
3,9
4,15
5,6
6,7
6,8
6,9
7,21
8,21
9,10
9,11
10,16
11,12
12,13
13,14
13,15
14,16
14,17
15,17
16,18
17,19
18,21
19,20
20,21
21,22
21,23
21,24
22,25
23,32
24,32
25,26
26,27
27,28
28,29
29,30
30,31
31,32

<setup times forward>
1,2:149
1,3:58
1,4:51
1,5:35
2,1:149
2,3:207
2,4:98
2,5:114
2,6:233
3,1:58
3,2:207
3,4:109
3,5:93
3,6:26
3,7:51
3,8:73
3,9:136
4,1:51
4,2:98
4,3:109
4,5:16
4,6:135
4,7:58
4,8:182
4,9:27
4,10:107
4,11:219
4,12:73
4,13:13
4,14:54
4,15:243
4,16:224
4,18:89
5,2:114
5,3:93
5,4:16
5,6:119
6,3:26
6,4:135
6,7:77
6,8:47
6,9:162
7,3:51
7,4:58
7,8:124
7,9:85
7,10:49
7,11:161
7,12:15
7,13:45
7,14:112
7,15:185
7,16:166
7,17:143
7,18:31
7,19:40
7,20:109
7,21:102
8,3:73
8,4:182
8,7:124
8,9:209
8,10:75
8,11:37
8,12:109
8,13:169
8,14:236
8,15:61
8,16:42
8,17:267
8,18:93
8,19:164
8,20:233
8,21:226
9,4:27
9,7:85
9,8:209
9,10:134
9,11:246
10,4:107
10,7:49
10,8:75
10,11:112
10,12:34
10,13:94
10,14:161
10,15:136
10,16:117
10,17:192
10,19:89
10,20:158
11,4:219
11,7:161
11,8:37
11,10:112
11,12:146
12,4:73
12,7:15
12,8:109
12,10:34
12,13:60
13,4:13
13,7:45
13,8:169
13,10:94
13,14:67
13,15:230
14,4:54
14,7:112
14,8:236
14,10:161
14,15:297
14,16:278
14,17:31
15,7:185
15,8:61
15,10:136
15,14:297
15,16:19
15,17:328
15,18:154
16,4:224
16,7:166
16,8:42
16,15:19
16,17:309
16,18:135
16,19:206
16,20:275
17,7:143
17,8:267
17,10:192
17,16:309
17,18:174
17,19:103
18,4:89
18,7:31
18,8:93
18,15:154
18,17:174
18,19:71
18,20:140
18,21:133
19,7:40
19,8:164
19,10:89
19,16:206
19,18:71
19,20:69
20,7:109
20,8:233
20,10:158
20,16:275
20,18:140
20,21:7
21,22:224
21,23:10
21,24:135
22,23:214
22,24:89
22,25:62
23,22:214
23,24:125
23,25:152
23,26:230
23,27:300
23,28:54
23,29:261
23,30:96
23,31:15
23,32:45
24,22:89
24,23:125
24,25:27
24,26:105
24,27:175
24,28:71
24,29:136
24,30:29
24,31:140
24,32:170
25,23:152
25,24:27
25,26:78
26,23:230
26,24:105
26,27:70
27,23:300
27,24:175
27,28:246
28,23:54
28,24:71
28,29:207
29,23:261
29,24:136
29,30:165
30,23:96
30,24:29
30,31:111
31,23:15
31,24:140
31,32:30

<setup times backward>
1,1:366
1,2:217
1,3:424
1,4:315
2,1:515
2,2:366
2,3:573
2,4:464
2,5:480
3,1:308
3,2:159
3,3:366
3,4:257
3,5:273
3,6:392
3,7:315
3,8:439
4,1:417
4,2:268
4,3:475
4,4:366
4,5:382
4,6:501
4,7:424
4,8:548
4,9:339
4,10:473
4,11:585
4,12:439
4,13:379
4,14:312
4,16:590
4,18:455
5,1:401
5,2:252
5,3:459
5,4:350
5,5:366
6,1:282
6,2:133
6,3:340
6,4:231
6,5:247
6,6:366
7,1:359
7,2:210
7,3:417
7,4:308
7,5:324
7,6:443
7,7:366
7,8:490
7,9:281
7,10:415
7,11:527
7,12:381
7,13:321
7,14:254
7,15:551
7,16:532
7,17:223
7,18:397
7,19:326
7,20:257
8,1:235
8,2:86
8,3:293
8,4:184
8,5:200
8,6:319
8,7:242
8,8:366
8,9:157
8,10:291
8,11:403
8,12:257
8,13:197
8,14:130
8,15:427
8,16:408
8,17:99
8,18:273
8,19:202
8,20:133
9,1:444
9,2:295
9,3:502
9,4:393
9,5:409
9,6:528
9,7:451
9,8:575
9,9:366
10,1:310
10,2:161
10,3:368
10,4:259
10,5:275
10,6:394
10,7:317
10,8:441
10,9:232
10,10:366
10,11:478
10,12:332
10,13:272
10,14:205
10,15:502
10,17:174
10,19:277
10,20:208
11,1:198
11,2:49
11,3:256
11,4:147
11,5:163
11,6:282
11,7:205
11,8:329
11,9:120
11,10:254
11,11:366
12,1:344
12,2:195
12,3:402
12,4:293
12,5:309
12,6:428
12,7:351
12,8:475
12,9:266
12,10:400
12,11:512
12,12:366
13,1:404
13,2:255
13,3:462
13,4:353
13,5:369
13,6:488
13,7:411
13,8:535
13,9:326
13,10:460
13,11:572
13,12:426
13,13:366
14,1:471
14,2:322
14,3:529
14,4:420
14,5:436
14,6:555
14,7:478
14,8:602
14,9:393
14,10:527
14,11:639
14,12:493
14,13:433
14,14:366
14,15:663
15,1:174
15,2:25
15,3:232
15,4:123
15,5:139
15,6:258
15,7:181
15,8:305
15,9:96
15,10:230
15,11:342
15,12:196
15,13:136
15,14:69
15,15:366
15,16:347
15,18:212
16,1:193
16,2:44
16,3:251
16,4:142
16,5:158
16,6:277
16,7:200
16,8:324
16,9:115
16,10:249
16,11:361
16,12:215
16,13:155
16,14:88
16,15:385
16,16:366
16,17:57
16,19:160
16,20:91
17,1:502
17,2:353
17,3:560
17,4:451
17,5:467
17,6:586
17,7:509
17,8:633
17,9:424
17,10:558
17,11:670
17,12:524
17,13:464
17,14:397
17,15:694
17,16:675
17,17:366
17,18:540
18,1:328
18,2:179
18,3:386
18,4:277
18,5:293
18,6:412
18,7:335
18,8:459
18,9:250
18,10:384
18,11:496
18,12:350
18,13:290
18,14:223
18,15:520
18,16:501
18,17:192
18,18:366
18,19:295
18,20:226
19,1:399
19,2:250
19,3:457
19,4:348
19,5:364
19,6:483
19,7:406
19,8:530
19,9:321
19,10:455
19,11:567
19,12:421
19,13:361
19,14:294
19,15:591
19,16:572
19,17:263
19,18:437
19,19:366
20,1:468
20,2:319
20,3:526
20,4:417
20,5:433
20,6:552
20,7:475
20,8:599
20,9:390
20,10:524
20,11:636
20,12:490
20,13:430
20,14:363
20,15:660
20,16:641
20,17:332
20,18:506
20,19:435
20,20:366
21,1:461
21,2:312
21,3:519
21,4:410
21,5:426
21,6:545
21,7:468
21,8:592
21,9:383
21,10:517
21,11:629
21,12:483
21,13:423
21,14:356
21,15:653
21,16:634
21,17:325
21,18:499
21,19:428
21,20:359
21,21:366
22,1:237
22,2:88
22,3:295
22,4:186
22,5:202
22,6:321
22,7:244
22,8:368
22,9:159
22,10:293
22,11:405
22,12:259
22,13:199
22,14:132
22,15:429
22,16:410
22,17:101
22,18:275
22,19:204
22,20:135
22,21:142
22,22:366
22,23:152
22,24:277
23,1:451
23,2:302
23,3:509
23,4:400
23,5:416
23,6:535
23,7:458
23,8:582
23,9:373
23,10:507
23,11:619
23,12:473
23,13:413
23,14:346
23,15:643
23,16:624
23,17:315
23,18:489
23,19:418
23,20:349
23,21:356
23,22:580
23,23:366
23,24:491
23,25:518
23,26:596
23,27:666
23,28:420
23,29:627
23,30:462
23,31:351
24,1:326
24,2:177
24,3:384
24,4:275
24,5:291
24,6:410
24,7:333
24,8:457
24,9:248
24,10:382
24,11:494
24,12:348
24,13:288
24,14:221
24,15:518
24,16:499
24,17:190
24,18:364
24,19:293
24,20:224
24,21:231
24,22:455
24,23:241
24,24:366
24,25:393
24,26:471
24,27:541
24,28:295
24,29:502
24,30:337
24,31:226
25,1:299
25,2:150
25,3:357
25,4:248
25,5:264
25,6:383
25,7:306
25,8:430
25,9:221
25,10:355
25,11:467
25,12:321
25,13:261
25,14:194
25,15:491
25,16:472
25,17:163
25,18:337
25,19:266
25,20:197
25,21:204
25,22:428
25,23:214
25,24:339
25,25:366
26,1:221
26,2:72
26,3:279
26,4:170
26,5:186
26,6:305
26,7:228
26,8:352
26,9:143
26,10:277
26,11:389
26,12:243
26,13:183
26,14:116
26,15:413
26,16:394
26,17:85
26,18:259
26,19:188
26,20:119
26,21:126
26,22:350
26,23:136
26,24:261
26,25:288
26,26:366
27,1:151
27,2:2
27,3:209
27,4:100
27,5:116
27,6:235
27,7:158
27,8:282
27,9:73
27,10:207
27,11:319
27,12:173
27,13:113
27,14:46
27,15:343
27,16:324
27,17:15
27,18:189
27,19:118
27,20:49
27,21:56
27,22:280
27,23:66
27,24:191
27,25:218
27,26:296
27,27:366
28,1:397
28,2:248
28,3:455
28,4:346
28,5:362
28,6:481
28,7:404
28,8:528
28,9:319
28,10:453
28,11:565
28,12:419
28,13:359
28,14:292
28,15:589
28,16:570
28,17:261
28,18:435
28,19:364
28,20:295
28,21:302
28,22:526
28,23:312
28,24:437
28,25:464
28,26:542
28,27:612
28,28:366
29,1:190
29,2:41
29,3:248
29,4:139
29,5:155
29,6:274
29,7:197
29,8:321
29,9:112
29,10:246
29,11:358
29,12:212
29,13:152
29,14:85
29,15:382
29,16:363
29,17:54
29,18:228
29,19:157
29,20:88
29,21:95
29,22:319
29,23:105
29,24:230
29,25:257
29,26:335
29,27:405
29,28:159
29,29:366
30,1:355
30,2:206
30,3:413
30,4:304
30,5:320
30,6:439
30,7:362
30,8:486
30,9:277
30,10:411
30,11:523
30,12:377
30,13:317
30,14:250
30,15:547
30,16:528
30,17:219
30,18:393
30,19:322
30,20:253
30,21:260
30,22:484
30,23:270
30,24:395
30,25:422
30,26:500
30,27:570
30,28:324
30,29:531
30,30:366
31,1:466
31,2:317
31,3:524
31,4:415
31,5:431
31,6:550
31,7:473
31,8:597
31,9:388
31,10:522
31,11:634
31,12:488
31,13:428
31,14:361
31,15:658
31,16:639
31,17:330
31,18:504
31,19:433
31,20:364
31,21:371
31,22:595
31,23:381
31,24:506
31,25:533
31,26:611
31,27:681
31,28:435
31,29:642
31,30:477
31,31:366
32,1:496
32,2:347
32,3:554
32,4:445
32,5:461
32,6:580
32,7:503
32,8:627
32,9:418
32,10:552
32,11:664
32,12:518
32,13:458
32,14:391
32,15:688
32,16:669
32,17:360
32,18:534
32,19:463
32,20:394
32,21:401
32,22:625
32,23:411
32,24:536
32,25:563
32,26:641
32,27:711
32,28:465
32,29:672
32,30:507
32,31:396
32,32:366

<end>

<optimal SALBP-1 value>
9


<rand seed>
467321153

